(set-logic QF_SLIA)
(set-option :produce-models true)
(declare-const X String)
; www\x2Ericercadoppia\x2Ecom\w+TPSystem\s+User-Agent\x3A
(assert (not (str.in_re X (re.++ (str.to_re "www.ricercadoppia.com") (re.+ (re.union (re.range "0" "9") (re.range "A" "Z") (re.range "a" "z") (str.to_re "_"))) (str.to_re "TPSystem") (re.+ (re.union (str.to_re " ") (str.to_re "\u{09}") (str.to_re "\u{0a}") (str.to_re "\u{0c}") (str.to_re "\u{0d}"))) (str.to_re "User-Agent:\u{0a}")))))
; ((FI|HU|LU|MT|SI)-?)?[0-9]{8}
(assert (not (str.in_re X (re.++ (re.opt (re.++ (re.union (str.to_re "FI") (str.to_re "HU") (str.to_re "LU") (str.to_re "MT") (str.to_re "SI")) (re.opt (str.to_re "-")))) ((_ re.loop 8 8) (re.range "0" "9")) (str.to_re "\u{0a}")))))
; ^\+[0-9]{1,3}\.[0-9]+\.[0-9]+$
(assert (str.in_re X (re.++ (str.to_re "+") ((_ re.loop 1 3) (re.range "0" "9")) (str.to_re ".") (re.+ (re.range "0" "9")) (str.to_re ".") (re.+ (re.range "0" "9")) (str.to_re "\u{0a}"))))
; /filename=[^\n]*\u{2e}jif/i
(assert (not (str.in_re X (re.++ (str.to_re "/filename=") (re.* (re.comp (str.to_re "\u{0a}"))) (str.to_re ".jif/i\u{0a}")))))
; <script[^>]*>[\w|\t|\r|\W]*</script>
(assert (str.in_re X (re.++ (str.to_re "<script") (re.* (re.comp (str.to_re ">"))) (str.to_re ">") (re.* (re.union (str.to_re "|") (str.to_re "\u{09}") (str.to_re "\u{0d}") (re.comp (re.union (re.range "0" "9") (re.range "A" "Z") (re.range "a" "z") (str.to_re "_"))) (re.range "0" "9") (re.range "A" "Z") (re.range "a" "z") (str.to_re "_"))) (str.to_re "</script>\u{0a}"))))
(check-sat)
